
se = 40; % nombre de sessions
gr = 20; % nombre de grups de treball
cl = 7; % nombre de slots
minPapersPerSlot = 3; % minim nombre d'articles per sessio i slot
maxSesionsPar = 14; % maxim nombre de sessions paraleles

npMax = [5, 6, 4, 4, 3, 5, 3]; % nombre maxim de papers per slot

np = [12, 9, 4, 3, 9, 3, 16, 3, 12, 5, 12, 4, 3, 12, 3, 3, 3, 7, 7, 6, 6, 4, 3, 8, 3, 7, 14, 12, 3, 3, 14, 17, 3, 16, 3, 12, 3, 11, 13, 3]; % nombre de papers acceptats a cada sessio

WG = [ {}, {1}, {2}, {3}, {}, {4}, {5}, {}, {}, {}, {6}, {7}, {8}, {}, {9,10,11}, {12}, {13}, {14,15,16}, {17}, {18,19,20}, {1,2,3}, {4,5,6}, {7,8,9}, {10}, {11}, {}, {}, {12,13,14}, {15}, {16}, {17}, {18,19,20}, {}, {1}, {2,3}, {4}, {5}, {6}, {}, {7} ]; % grups per sessio

